86 73 64 54 55 57 59 58 56 47 37 36 46 35 30 31 32 25 22 28 23 17 15 14 13 7 0 8 4 5 1 9 19 34 20 10 16 11 6 2 3 12 24 27 45 72 77 71 70 69 68 76 85 84 99 98 107 108 109 110 101 111 125 126 124 113 112 123 122 130 131 132 133 141 142 143 179 178 187 186 185 177 170 163 162 140 161 160 159 158 156 155 137 151 150 152 153 154 138 139 157 169 168 167 176 175 174 166 165 183 191 184 192 193 194 195 196 208 207 215 218 216 209 199 198 200 210 211 201 212 222 223 235 236 234 233 220 217 219 232 231 230 229 228 214 206 205 204 203 225 227 226 224 221 213 202 197 189 190 182 188 181 180 172 173 164 171 144 145 135 146 147 148 149 136 118 117 127 128 134 129 114 116 115 88 87 100 92 95 96 103 102 104 105 119 120 121 106 97 91 94 90 93 89 80 81 82 74 83 75 67 61 62 63 52 53 65 44 21 51 43 42 50 41 29 26 18 33 38 39 40 48 49 66 60 79 78 